
;this file is automatically generated: Mon Nov 02 10:36:10 CST 2020

;declarations generated

(declare-fun oclExcludes ( Int Int) Bool)
(declare-fun Cardinality ( Int) Int)
(declare-fun type_3d68b99d_6e09_459e_b080_3ccd36d92ab3_Class55 ( Int) Bool)
(declare-fun type_3d68b99d_6e09_459e_b080_3ccd36d92ab3_Class54 ( Int) Bool)
(declare-fun type_3d68b99d_6e09_459e_b080_3ccd36d92ab3_Class53 ( Int) Bool)
(declare-fun type_3d68b99d_6e09_459e_b080_3ccd36d92ab3_Class52 ( Int) Bool)
(declare-fun type_3d68b99d_6e09_459e_b080_3ccd36d92ab3_Class51 ( Int) Bool)
(declare-fun type_3d68b99d_6e09_459e_b080_3ccd36d92ab3_Class50 ( Int) Bool)
(declare-fun class51_Class51IntAttr1 ( Int) Int)
(declare-fun oclSelect ( Int Bool) Int)
(declare-fun type_3d68b99d_6e09_459e_b080_3ccd36d92ab3_Class44 ( Int) Bool)
(declare-fun type_3d68b99d_6e09_459e_b080_3ccd36d92ab3_Class43 ( Int) Bool)
(declare-fun type_3d68b99d_6e09_459e_b080_3ccd36d92ab3_Class42 ( Int) Bool)
(declare-fun type_3d68b99d_6e09_459e_b080_3ccd36d92ab3_Class41 ( Int) Bool)
(declare-fun type_3d68b99d_6e09_459e_b080_3ccd36d92ab3_Class48 ( Int) Bool)
(declare-fun type_3d68b99d_6e09_459e_b080_3ccd36d92ab3_Class47 ( Int) Bool)
(declare-fun type_3d68b99d_6e09_459e_b080_3ccd36d92ab3_Class46 ( Int) Bool)
(declare-fun type_3d68b99d_6e09_459e_b080_3ccd36d92ab3_Class45 ( Int) Bool)
(declare-fun type_3d68b99d_6e09_459e_b080_3ccd36d92ab3_Class40 ( Int) Bool)
(declare-fun type_3d68b99d_6e09_459e_b080_3ccd36d92ab3_Class49 ( Int) Bool)
(declare-fun type_3d68b99d_6e09_459e_b080_3ccd36d92ab3_Class33 ( Int) Bool)
(declare-fun type_3d68b99d_6e09_459e_b080_3ccd36d92ab3_Class32 ( Int) Bool)
(declare-fun type_3d68b99d_6e09_459e_b080_3ccd36d92ab3_Class31 ( Int) Bool)
(declare-fun type_3d68b99d_6e09_459e_b080_3ccd36d92ab3_Class30 ( Int) Bool)
(declare-fun type_3d68b99d_6e09_459e_b080_3ccd36d92ab3_Class37 ( Int) Bool)
(declare-fun type_3d68b99d_6e09_459e_b080_3ccd36d92ab3_Class36 ( Int) Bool)
(declare-fun type_3d68b99d_6e09_459e_b080_3ccd36d92ab3_Class35 ( Int) Bool)
(declare-fun type_3d68b99d_6e09_459e_b080_3ccd36d92ab3_Class34 ( Int) Bool)
(declare-fun type_3d68b99d_6e09_459e_b080_3ccd36d92ab3_Class39 ( Int) Bool)
(declare-fun type_3d68b99d_6e09_459e_b080_3ccd36d92ab3_Class38 ( Int) Bool)
(declare-fun type_3d68b99d_6e09_459e_b080_3ccd36d92ab3_Class22 ( Int) Bool)
(declare-fun type_3d68b99d_6e09_459e_b080_3ccd36d92ab3_Class21 ( Int) Bool)
(declare-fun type_3d68b99d_6e09_459e_b080_3ccd36d92ab3_Class20 ( Int) Bool)
(declare-fun type_3d68b99d_6e09_459e_b080_3ccd36d92ab3_Class26 ( Int) Bool)
(declare-fun type_3d68b99d_6e09_459e_b080_3ccd36d92ab3_Class25 ( Int) Bool)
(declare-fun type_3d68b99d_6e09_459e_b080_3ccd36d92ab3_Class24 ( Int) Bool)
(declare-fun type_3d68b99d_6e09_459e_b080_3ccd36d92ab3_Class23 ( Int) Bool)
(declare-fun type_3d68b99d_6e09_459e_b080_3ccd36d92ab3_Class29 ( Int) Bool)
(declare-fun type_3d68b99d_6e09_459e_b080_3ccd36d92ab3_Class28 ( Int) Bool)
(declare-fun type_3d68b99d_6e09_459e_b080_3ccd36d92ab3_Class27 ( Int) Bool)
(declare-fun type_3d68b99d_6e09_459e_b080_3ccd36d92ab3_Class11 ( Int) Bool)
(declare-fun type_3d68b99d_6e09_459e_b080_3ccd36d92ab3_Class10 ( Int) Bool)
(declare-fun type_3d68b99d_6e09_459e_b080_3ccd36d92ab3_Class15 ( Int) Bool)
(declare-fun type_3d68b99d_6e09_459e_b080_3ccd36d92ab3_Class14 ( Int) Bool)
(declare-fun type_3d68b99d_6e09_459e_b080_3ccd36d92ab3_Class13 ( Int) Bool)
(declare-fun type_3d68b99d_6e09_459e_b080_3ccd36d92ab3_Class12 ( Int) Bool)
(declare-fun type_3d68b99d_6e09_459e_b080_3ccd36d92ab3_Class19 ( Int) Bool)
(declare-fun type_3d68b99d_6e09_459e_b080_3ccd36d92ab3_Class18 ( Int) Bool)
(declare-fun type_3d68b99d_6e09_459e_b080_3ccd36d92ab3_Class17 ( Int) Bool)
(declare-fun type_3d68b99d_6e09_459e_b080_3ccd36d92ab3_Class16 ( Int) Bool)
(declare-fun obj_be84e5f2_6c44_4987_b111_398043b31734 ( Int) Int)
(declare-fun Enum0 ( Int) Int)
(declare-fun Enum1 ( Int) Int)
(declare-fun Enum2 ( Int) Int)
(declare-fun container_ ( Int) Int)
(declare-fun type_3d68b99d_6e09_459e_b080_3ccd36d92ab3_Class0 ( Int) Bool)
(declare-fun type_3d68b99d_6e09_459e_b080_3ccd36d92ab3_Class2 ( Int) Bool)
(declare-fun type_3d68b99d_6e09_459e_b080_3ccd36d92ab3_Class1 ( Int) Bool)
(declare-fun type_3d68b99d_6e09_459e_b080_3ccd36d92ab3_Class4 ( Int) Bool)
(declare-fun oclIncludes ( Int Int) Bool)
(declare-fun type_3d68b99d_6e09_459e_b080_3ccd36d92ab3_Class3 ( Int) Bool)
(declare-fun type_3d68b99d_6e09_459e_b080_3ccd36d92ab3_Class6 ( Int) Bool)
(declare-fun type_3d68b99d_6e09_459e_b080_3ccd36d92ab3_Class5 ( Int) Bool)
(declare-fun type_3d68b99d_6e09_459e_b080_3ccd36d92ab3_Class8 ( Int) Bool)
(declare-fun type_3d68b99d_6e09_459e_b080_3ccd36d92ab3_Class7 ( Int) Bool)
(declare-fun type_3d68b99d_6e09_459e_b080_3ccd36d92ab3_Class9 ( Int) Bool)
(declare-fun ObjAt ( Int Int) Int)

;formula(s) generated
(assert (! (forall ((v Int)) (=> (and (and (and (and (and (and ( type_3d68b99d_6e09_459e_b080_3ccd36d92ab3_Class51 v )  ( type_3d68b99d_6e09_459e_b080_3ccd36d92ab3_Class45 v ) ) ( type_3d68b99d_6e09_459e_b080_3ccd36d92ab3_Class12 v ) ) ( type_3d68b99d_6e09_459e_b080_3ccd36d92ab3_Class33 v ) ) ( type_3d68b99d_6e09_459e_b080_3ccd36d92ab3_Class22 v ) ) ( type_3d68b99d_6e09_459e_b080_3ccd36d92ab3_Class16 v ) ) ( type_3d68b99d_6e09_459e_b080_3ccd36d92ab3_Class39 v ) ) (not (= ( class51_Class51IntAttr1 ( obj_be84e5f2_6c44_4987_b111_398043b31734 v )  )  1) ))):named l0))
(assert (! (exists ((o Int)) ( type_3d68b99d_6e09_459e_b080_3ccd36d92ab3_Class0 ( obj_be84e5f2_6c44_4987_b111_398043b31734 o )  ) ):named c0))
(assert (! (exists ((o Int)) (and (and (and (and (and ( type_3d68b99d_6e09_459e_b080_3ccd36d92ab3_Class1 ( obj_be84e5f2_6c44_4987_b111_398043b31734 o )  )  ( type_3d68b99d_6e09_459e_b080_3ccd36d92ab3_Class45 ( obj_be84e5f2_6c44_4987_b111_398043b31734 o )  ) ) ( type_3d68b99d_6e09_459e_b080_3ccd36d92ab3_Class12 ( obj_be84e5f2_6c44_4987_b111_398043b31734 o )  ) ) ( type_3d68b99d_6e09_459e_b080_3ccd36d92ab3_Class33 ( obj_be84e5f2_6c44_4987_b111_398043b31734 o )  ) ) ( type_3d68b99d_6e09_459e_b080_3ccd36d92ab3_Class22 ( obj_be84e5f2_6c44_4987_b111_398043b31734 o )  ) ) ( type_3d68b99d_6e09_459e_b080_3ccd36d92ab3_Class39 ( obj_be84e5f2_6c44_4987_b111_398043b31734 o )  ) )):named c1))
(assert (! (exists ((o Int)) (and (and (and (and (and (and (and (and (and ( type_3d68b99d_6e09_459e_b080_3ccd36d92ab3_Class10 ( obj_be84e5f2_6c44_4987_b111_398043b31734 o )  )  ( type_3d68b99d_6e09_459e_b080_3ccd36d92ab3_Class45 ( obj_be84e5f2_6c44_4987_b111_398043b31734 o )  ) ) ( type_3d68b99d_6e09_459e_b080_3ccd36d92ab3_Class12 ( obj_be84e5f2_6c44_4987_b111_398043b31734 o )  ) ) ( type_3d68b99d_6e09_459e_b080_3ccd36d92ab3_Class55 ( obj_be84e5f2_6c44_4987_b111_398043b31734 o )  ) ) ( type_3d68b99d_6e09_459e_b080_3ccd36d92ab3_Class33 ( obj_be84e5f2_6c44_4987_b111_398043b31734 o )  ) ) ( type_3d68b99d_6e09_459e_b080_3ccd36d92ab3_Class22 ( obj_be84e5f2_6c44_4987_b111_398043b31734 o )  ) ) ( type_3d68b99d_6e09_459e_b080_3ccd36d92ab3_Class29 ( obj_be84e5f2_6c44_4987_b111_398043b31734 o )  ) ) ( type_3d68b99d_6e09_459e_b080_3ccd36d92ab3_Class39 ( obj_be84e5f2_6c44_4987_b111_398043b31734 o )  ) ) ( type_3d68b99d_6e09_459e_b080_3ccd36d92ab3_Class50 ( obj_be84e5f2_6c44_4987_b111_398043b31734 o )  ) ) ( type_3d68b99d_6e09_459e_b080_3ccd36d92ab3_Class41 ( obj_be84e5f2_6c44_4987_b111_398043b31734 o )  ) )):named c2))
(assert (! (exists ((o Int)) ( type_3d68b99d_6e09_459e_b080_3ccd36d92ab3_Class11 ( obj_be84e5f2_6c44_4987_b111_398043b31734 o )  ) ):named c3))
(assert (! (exists ((o Int)) (and (and (and ( type_3d68b99d_6e09_459e_b080_3ccd36d92ab3_Class12 ( obj_be84e5f2_6c44_4987_b111_398043b31734 o )  )  ( type_3d68b99d_6e09_459e_b080_3ccd36d92ab3_Class33 ( obj_be84e5f2_6c44_4987_b111_398043b31734 o )  ) ) ( type_3d68b99d_6e09_459e_b080_3ccd36d92ab3_Class22 ( obj_be84e5f2_6c44_4987_b111_398043b31734 o )  ) ) ( type_3d68b99d_6e09_459e_b080_3ccd36d92ab3_Class39 ( obj_be84e5f2_6c44_4987_b111_398043b31734 o )  ) )):named c4))
(assert (! (exists ((o Int)) (and (and (and (and (and (and (and (and (and ( type_3d68b99d_6e09_459e_b080_3ccd36d92ab3_Class13 ( obj_be84e5f2_6c44_4987_b111_398043b31734 o )  )  ( type_3d68b99d_6e09_459e_b080_3ccd36d92ab3_Class45 ( obj_be84e5f2_6c44_4987_b111_398043b31734 o )  ) ) ( type_3d68b99d_6e09_459e_b080_3ccd36d92ab3_Class12 ( obj_be84e5f2_6c44_4987_b111_398043b31734 o )  ) ) ( type_3d68b99d_6e09_459e_b080_3ccd36d92ab3_Class55 ( obj_be84e5f2_6c44_4987_b111_398043b31734 o )  ) ) ( type_3d68b99d_6e09_459e_b080_3ccd36d92ab3_Class33 ( obj_be84e5f2_6c44_4987_b111_398043b31734 o )  ) ) ( type_3d68b99d_6e09_459e_b080_3ccd36d92ab3_Class22 ( obj_be84e5f2_6c44_4987_b111_398043b31734 o )  ) ) ( type_3d68b99d_6e09_459e_b080_3ccd36d92ab3_Class29 ( obj_be84e5f2_6c44_4987_b111_398043b31734 o )  ) ) ( type_3d68b99d_6e09_459e_b080_3ccd36d92ab3_Class39 ( obj_be84e5f2_6c44_4987_b111_398043b31734 o )  ) ) ( type_3d68b99d_6e09_459e_b080_3ccd36d92ab3_Class50 ( obj_be84e5f2_6c44_4987_b111_398043b31734 o )  ) ) ( type_3d68b99d_6e09_459e_b080_3ccd36d92ab3_Class41 ( obj_be84e5f2_6c44_4987_b111_398043b31734 o )  ) )):named c5))
(assert (! (exists ((o Int)) (and (and (and (and (and (and (and (and (and ( type_3d68b99d_6e09_459e_b080_3ccd36d92ab3_Class14 ( obj_be84e5f2_6c44_4987_b111_398043b31734 o )  )  ( type_3d68b99d_6e09_459e_b080_3ccd36d92ab3_Class45 ( obj_be84e5f2_6c44_4987_b111_398043b31734 o )  ) ) ( type_3d68b99d_6e09_459e_b080_3ccd36d92ab3_Class12 ( obj_be84e5f2_6c44_4987_b111_398043b31734 o )  ) ) ( type_3d68b99d_6e09_459e_b080_3ccd36d92ab3_Class55 ( obj_be84e5f2_6c44_4987_b111_398043b31734 o )  ) ) ( type_3d68b99d_6e09_459e_b080_3ccd36d92ab3_Class33 ( obj_be84e5f2_6c44_4987_b111_398043b31734 o )  ) ) ( type_3d68b99d_6e09_459e_b080_3ccd36d92ab3_Class22 ( obj_be84e5f2_6c44_4987_b111_398043b31734 o )  ) ) ( type_3d68b99d_6e09_459e_b080_3ccd36d92ab3_Class29 ( obj_be84e5f2_6c44_4987_b111_398043b31734 o )  ) ) ( type_3d68b99d_6e09_459e_b080_3ccd36d92ab3_Class39 ( obj_be84e5f2_6c44_4987_b111_398043b31734 o )  ) ) ( type_3d68b99d_6e09_459e_b080_3ccd36d92ab3_Class50 ( obj_be84e5f2_6c44_4987_b111_398043b31734 o )  ) ) ( type_3d68b99d_6e09_459e_b080_3ccd36d92ab3_Class41 ( obj_be84e5f2_6c44_4987_b111_398043b31734 o )  ) )):named c6))
(assert (! (exists ((o Int)) ( type_3d68b99d_6e09_459e_b080_3ccd36d92ab3_Class15 ( obj_be84e5f2_6c44_4987_b111_398043b31734 o )  ) ):named c7))
(assert (! (exists ((o Int)) (and (and (and (and (and ( type_3d68b99d_6e09_459e_b080_3ccd36d92ab3_Class16 ( obj_be84e5f2_6c44_4987_b111_398043b31734 o )  )  ( type_3d68b99d_6e09_459e_b080_3ccd36d92ab3_Class45 ( obj_be84e5f2_6c44_4987_b111_398043b31734 o )  ) ) ( type_3d68b99d_6e09_459e_b080_3ccd36d92ab3_Class12 ( obj_be84e5f2_6c44_4987_b111_398043b31734 o )  ) ) ( type_3d68b99d_6e09_459e_b080_3ccd36d92ab3_Class33 ( obj_be84e5f2_6c44_4987_b111_398043b31734 o )  ) ) ( type_3d68b99d_6e09_459e_b080_3ccd36d92ab3_Class22 ( obj_be84e5f2_6c44_4987_b111_398043b31734 o )  ) ) ( type_3d68b99d_6e09_459e_b080_3ccd36d92ab3_Class39 ( obj_be84e5f2_6c44_4987_b111_398043b31734 o )  ) )):named c8))
(assert (! (exists ((o Int)) ( type_3d68b99d_6e09_459e_b080_3ccd36d92ab3_Class17 ( obj_be84e5f2_6c44_4987_b111_398043b31734 o )  ) ):named c9))
(assert (! (exists ((o Int)) (and (and (and ( type_3d68b99d_6e09_459e_b080_3ccd36d92ab3_Class18 ( obj_be84e5f2_6c44_4987_b111_398043b31734 o )  )  ( type_3d68b99d_6e09_459e_b080_3ccd36d92ab3_Class25 ( obj_be84e5f2_6c44_4987_b111_398043b31734 o )  ) ) ( type_3d68b99d_6e09_459e_b080_3ccd36d92ab3_Class24 ( obj_be84e5f2_6c44_4987_b111_398043b31734 o )  ) ) ( type_3d68b99d_6e09_459e_b080_3ccd36d92ab3_Class39 ( obj_be84e5f2_6c44_4987_b111_398043b31734 o )  ) )):named c10))
(assert (! (exists ((o Int)) (and (and (and (and (and (and (and (and (and ( type_3d68b99d_6e09_459e_b080_3ccd36d92ab3_Class19 ( obj_be84e5f2_6c44_4987_b111_398043b31734 o )  )  ( type_3d68b99d_6e09_459e_b080_3ccd36d92ab3_Class45 ( obj_be84e5f2_6c44_4987_b111_398043b31734 o )  ) ) ( type_3d68b99d_6e09_459e_b080_3ccd36d92ab3_Class12 ( obj_be84e5f2_6c44_4987_b111_398043b31734 o )  ) ) ( type_3d68b99d_6e09_459e_b080_3ccd36d92ab3_Class55 ( obj_be84e5f2_6c44_4987_b111_398043b31734 o )  ) ) ( type_3d68b99d_6e09_459e_b080_3ccd36d92ab3_Class33 ( obj_be84e5f2_6c44_4987_b111_398043b31734 o )  ) ) ( type_3d68b99d_6e09_459e_b080_3ccd36d92ab3_Class22 ( obj_be84e5f2_6c44_4987_b111_398043b31734 o )  ) ) ( type_3d68b99d_6e09_459e_b080_3ccd36d92ab3_Class29 ( obj_be84e5f2_6c44_4987_b111_398043b31734 o )  ) ) ( type_3d68b99d_6e09_459e_b080_3ccd36d92ab3_Class39 ( obj_be84e5f2_6c44_4987_b111_398043b31734 o )  ) ) ( type_3d68b99d_6e09_459e_b080_3ccd36d92ab3_Class50 ( obj_be84e5f2_6c44_4987_b111_398043b31734 o )  ) ) ( type_3d68b99d_6e09_459e_b080_3ccd36d92ab3_Class41 ( obj_be84e5f2_6c44_4987_b111_398043b31734 o )  ) )):named c11))
(assert (! (exists ((o Int)) ( type_3d68b99d_6e09_459e_b080_3ccd36d92ab3_Class2 ( obj_be84e5f2_6c44_4987_b111_398043b31734 o )  ) ):named c12))
(assert (! (exists ((o Int)) ( type_3d68b99d_6e09_459e_b080_3ccd36d92ab3_Class20 ( obj_be84e5f2_6c44_4987_b111_398043b31734 o )  ) ):named c13))
(assert (! (exists ((o Int)) (and (and (and (and (and (and (and (and (and ( type_3d68b99d_6e09_459e_b080_3ccd36d92ab3_Class21 ( obj_be84e5f2_6c44_4987_b111_398043b31734 o )  )  ( type_3d68b99d_6e09_459e_b080_3ccd36d92ab3_Class45 ( obj_be84e5f2_6c44_4987_b111_398043b31734 o )  ) ) ( type_3d68b99d_6e09_459e_b080_3ccd36d92ab3_Class12 ( obj_be84e5f2_6c44_4987_b111_398043b31734 o )  ) ) ( type_3d68b99d_6e09_459e_b080_3ccd36d92ab3_Class33 ( obj_be84e5f2_6c44_4987_b111_398043b31734 o )  ) ) ( type_3d68b99d_6e09_459e_b080_3ccd36d92ab3_Class22 ( obj_be84e5f2_6c44_4987_b111_398043b31734 o )  ) ) ( type_3d68b99d_6e09_459e_b080_3ccd36d92ab3_Class16 ( obj_be84e5f2_6c44_4987_b111_398043b31734 o )  ) ) ( type_3d68b99d_6e09_459e_b080_3ccd36d92ab3_Class29 ( obj_be84e5f2_6c44_4987_b111_398043b31734 o )  ) ) ( type_3d68b99d_6e09_459e_b080_3ccd36d92ab3_Class39 ( obj_be84e5f2_6c44_4987_b111_398043b31734 o )  ) ) ( type_3d68b99d_6e09_459e_b080_3ccd36d92ab3_Class41 ( obj_be84e5f2_6c44_4987_b111_398043b31734 o )  ) ) ( type_3d68b99d_6e09_459e_b080_3ccd36d92ab3_Class51 ( obj_be84e5f2_6c44_4987_b111_398043b31734 o )  ) )):named c14))
(assert (! (exists ((o Int)) (and ( type_3d68b99d_6e09_459e_b080_3ccd36d92ab3_Class22 ( obj_be84e5f2_6c44_4987_b111_398043b31734 o )  )  ( type_3d68b99d_6e09_459e_b080_3ccd36d92ab3_Class39 ( obj_be84e5f2_6c44_4987_b111_398043b31734 o )  ) )):named c15))
(assert (! (exists ((o Int)) (and (and (and (and ( type_3d68b99d_6e09_459e_b080_3ccd36d92ab3_Class23 ( obj_be84e5f2_6c44_4987_b111_398043b31734 o )  )  ( type_3d68b99d_6e09_459e_b080_3ccd36d92ab3_Class25 ( obj_be84e5f2_6c44_4987_b111_398043b31734 o )  ) ) ( type_3d68b99d_6e09_459e_b080_3ccd36d92ab3_Class24 ( obj_be84e5f2_6c44_4987_b111_398043b31734 o )  ) ) ( type_3d68b99d_6e09_459e_b080_3ccd36d92ab3_Class39 ( obj_be84e5f2_6c44_4987_b111_398043b31734 o )  ) ) ( type_3d68b99d_6e09_459e_b080_3ccd36d92ab3_Class5 ( obj_be84e5f2_6c44_4987_b111_398043b31734 o )  ) )):named c16))
(assert (! (exists ((o Int)) (and (and ( type_3d68b99d_6e09_459e_b080_3ccd36d92ab3_Class24 ( obj_be84e5f2_6c44_4987_b111_398043b31734 o )  )  ( type_3d68b99d_6e09_459e_b080_3ccd36d92ab3_Class25 ( obj_be84e5f2_6c44_4987_b111_398043b31734 o )  ) ) ( type_3d68b99d_6e09_459e_b080_3ccd36d92ab3_Class39 ( obj_be84e5f2_6c44_4987_b111_398043b31734 o )  ) )):named c17))
(assert (! (exists ((o Int)) (and ( type_3d68b99d_6e09_459e_b080_3ccd36d92ab3_Class25 ( obj_be84e5f2_6c44_4987_b111_398043b31734 o )  )  ( type_3d68b99d_6e09_459e_b080_3ccd36d92ab3_Class39 ( obj_be84e5f2_6c44_4987_b111_398043b31734 o )  ) )):named c18))
(assert (! (exists ((o Int)) ( type_3d68b99d_6e09_459e_b080_3ccd36d92ab3_Class26 ( obj_be84e5f2_6c44_4987_b111_398043b31734 o )  ) ):named c19))
(assert (! (exists ((o Int)) ( type_3d68b99d_6e09_459e_b080_3ccd36d92ab3_Class27 ( obj_be84e5f2_6c44_4987_b111_398043b31734 o )  ) ):named c20))
(assert (! (exists ((o Int)) (and (and (and (and (and (and (and ( type_3d68b99d_6e09_459e_b080_3ccd36d92ab3_Class28 ( obj_be84e5f2_6c44_4987_b111_398043b31734 o )  )  ( type_3d68b99d_6e09_459e_b080_3ccd36d92ab3_Class45 ( obj_be84e5f2_6c44_4987_b111_398043b31734 o )  ) ) ( type_3d68b99d_6e09_459e_b080_3ccd36d92ab3_Class12 ( obj_be84e5f2_6c44_4987_b111_398043b31734 o )  ) ) ( type_3d68b99d_6e09_459e_b080_3ccd36d92ab3_Class33 ( obj_be84e5f2_6c44_4987_b111_398043b31734 o )  ) ) ( type_3d68b99d_6e09_459e_b080_3ccd36d92ab3_Class22 ( obj_be84e5f2_6c44_4987_b111_398043b31734 o )  ) ) ( type_3d68b99d_6e09_459e_b080_3ccd36d92ab3_Class29 ( obj_be84e5f2_6c44_4987_b111_398043b31734 o )  ) ) ( type_3d68b99d_6e09_459e_b080_3ccd36d92ab3_Class39 ( obj_be84e5f2_6c44_4987_b111_398043b31734 o )  ) ) ( type_3d68b99d_6e09_459e_b080_3ccd36d92ab3_Class41 ( obj_be84e5f2_6c44_4987_b111_398043b31734 o )  ) )):named c21))
(assert (! (exists ((o Int)) (and (and (and (and (and (and ( type_3d68b99d_6e09_459e_b080_3ccd36d92ab3_Class29 ( obj_be84e5f2_6c44_4987_b111_398043b31734 o )  )  ( type_3d68b99d_6e09_459e_b080_3ccd36d92ab3_Class45 ( obj_be84e5f2_6c44_4987_b111_398043b31734 o )  ) ) ( type_3d68b99d_6e09_459e_b080_3ccd36d92ab3_Class12 ( obj_be84e5f2_6c44_4987_b111_398043b31734 o )  ) ) ( type_3d68b99d_6e09_459e_b080_3ccd36d92ab3_Class33 ( obj_be84e5f2_6c44_4987_b111_398043b31734 o )  ) ) ( type_3d68b99d_6e09_459e_b080_3ccd36d92ab3_Class22 ( obj_be84e5f2_6c44_4987_b111_398043b31734 o )  ) ) ( type_3d68b99d_6e09_459e_b080_3ccd36d92ab3_Class39 ( obj_be84e5f2_6c44_4987_b111_398043b31734 o )  ) ) ( type_3d68b99d_6e09_459e_b080_3ccd36d92ab3_Class41 ( obj_be84e5f2_6c44_4987_b111_398043b31734 o )  ) )):named c22))
(assert (! (exists ((o Int)) (and (and (and ( type_3d68b99d_6e09_459e_b080_3ccd36d92ab3_Class3 ( obj_be84e5f2_6c44_4987_b111_398043b31734 o )  )  ( type_3d68b99d_6e09_459e_b080_3ccd36d92ab3_Class25 ( obj_be84e5f2_6c44_4987_b111_398043b31734 o )  ) ) ( type_3d68b99d_6e09_459e_b080_3ccd36d92ab3_Class24 ( obj_be84e5f2_6c44_4987_b111_398043b31734 o )  ) ) ( type_3d68b99d_6e09_459e_b080_3ccd36d92ab3_Class39 ( obj_be84e5f2_6c44_4987_b111_398043b31734 o )  ) )):named c23))
(assert (! (exists ((o Int)) (and ( type_3d68b99d_6e09_459e_b080_3ccd36d92ab3_Class30 ( obj_be84e5f2_6c44_4987_b111_398043b31734 o )  )  ( type_3d68b99d_6e09_459e_b080_3ccd36d92ab3_Class39 ( obj_be84e5f2_6c44_4987_b111_398043b31734 o )  ) )):named c24))
(assert (! (exists ((o Int)) (and (and (and (and (and ( type_3d68b99d_6e09_459e_b080_3ccd36d92ab3_Class31 ( obj_be84e5f2_6c44_4987_b111_398043b31734 o )  )  ( type_3d68b99d_6e09_459e_b080_3ccd36d92ab3_Class45 ( obj_be84e5f2_6c44_4987_b111_398043b31734 o )  ) ) ( type_3d68b99d_6e09_459e_b080_3ccd36d92ab3_Class12 ( obj_be84e5f2_6c44_4987_b111_398043b31734 o )  ) ) ( type_3d68b99d_6e09_459e_b080_3ccd36d92ab3_Class33 ( obj_be84e5f2_6c44_4987_b111_398043b31734 o )  ) ) ( type_3d68b99d_6e09_459e_b080_3ccd36d92ab3_Class22 ( obj_be84e5f2_6c44_4987_b111_398043b31734 o )  ) ) ( type_3d68b99d_6e09_459e_b080_3ccd36d92ab3_Class39 ( obj_be84e5f2_6c44_4987_b111_398043b31734 o )  ) )):named c25))
(assert (! (exists ((o Int)) ( type_3d68b99d_6e09_459e_b080_3ccd36d92ab3_Class32 ( obj_be84e5f2_6c44_4987_b111_398043b31734 o )  ) ):named c26))
(assert (! (exists ((o Int)) (and (and ( type_3d68b99d_6e09_459e_b080_3ccd36d92ab3_Class33 ( obj_be84e5f2_6c44_4987_b111_398043b31734 o )  )  ( type_3d68b99d_6e09_459e_b080_3ccd36d92ab3_Class22 ( obj_be84e5f2_6c44_4987_b111_398043b31734 o )  ) ) ( type_3d68b99d_6e09_459e_b080_3ccd36d92ab3_Class39 ( obj_be84e5f2_6c44_4987_b111_398043b31734 o )  ) )):named c27))
(assert (! (exists ((o Int)) (and (and (and ( type_3d68b99d_6e09_459e_b080_3ccd36d92ab3_Class34 ( obj_be84e5f2_6c44_4987_b111_398043b31734 o )  )  ( type_3d68b99d_6e09_459e_b080_3ccd36d92ab3_Class25 ( obj_be84e5f2_6c44_4987_b111_398043b31734 o )  ) ) ( type_3d68b99d_6e09_459e_b080_3ccd36d92ab3_Class24 ( obj_be84e5f2_6c44_4987_b111_398043b31734 o )  ) ) ( type_3d68b99d_6e09_459e_b080_3ccd36d92ab3_Class39 ( obj_be84e5f2_6c44_4987_b111_398043b31734 o )  ) )):named c28))
(assert (! (exists ((o Int)) (and (and ( type_3d68b99d_6e09_459e_b080_3ccd36d92ab3_Class35 ( obj_be84e5f2_6c44_4987_b111_398043b31734 o )  )  ( type_3d68b99d_6e09_459e_b080_3ccd36d92ab3_Class39 ( obj_be84e5f2_6c44_4987_b111_398043b31734 o )  ) ) ( type_3d68b99d_6e09_459e_b080_3ccd36d92ab3_Class30 ( obj_be84e5f2_6c44_4987_b111_398043b31734 o )  ) )):named c29))
(assert (! (exists ((o Int)) ( type_3d68b99d_6e09_459e_b080_3ccd36d92ab3_Class36 ( obj_be84e5f2_6c44_4987_b111_398043b31734 o )  ) ):named c30))
(assert (! (exists ((o Int)) ( type_3d68b99d_6e09_459e_b080_3ccd36d92ab3_Class37 ( obj_be84e5f2_6c44_4987_b111_398043b31734 o )  ) ):named c31))
(assert (! (exists ((o Int)) ( type_3d68b99d_6e09_459e_b080_3ccd36d92ab3_Class38 ( obj_be84e5f2_6c44_4987_b111_398043b31734 o )  ) ):named c32))
(assert (! (exists ((o Int)) ( type_3d68b99d_6e09_459e_b080_3ccd36d92ab3_Class39 ( obj_be84e5f2_6c44_4987_b111_398043b31734 o )  ) ):named c33))
(assert (! (exists ((o Int)) ( type_3d68b99d_6e09_459e_b080_3ccd36d92ab3_Class4 ( obj_be84e5f2_6c44_4987_b111_398043b31734 o )  ) ):named c34))
(assert (! (exists ((o Int)) (and (and (and (and (and (and (and (and (and ( type_3d68b99d_6e09_459e_b080_3ccd36d92ab3_Class40 ( obj_be84e5f2_6c44_4987_b111_398043b31734 o )  )  ( type_3d68b99d_6e09_459e_b080_3ccd36d92ab3_Class45 ( obj_be84e5f2_6c44_4987_b111_398043b31734 o )  ) ) ( type_3d68b99d_6e09_459e_b080_3ccd36d92ab3_Class12 ( obj_be84e5f2_6c44_4987_b111_398043b31734 o )  ) ) ( type_3d68b99d_6e09_459e_b080_3ccd36d92ab3_Class55 ( obj_be84e5f2_6c44_4987_b111_398043b31734 o )  ) ) ( type_3d68b99d_6e09_459e_b080_3ccd36d92ab3_Class33 ( obj_be84e5f2_6c44_4987_b111_398043b31734 o )  ) ) ( type_3d68b99d_6e09_459e_b080_3ccd36d92ab3_Class22 ( obj_be84e5f2_6c44_4987_b111_398043b31734 o )  ) ) ( type_3d68b99d_6e09_459e_b080_3ccd36d92ab3_Class29 ( obj_be84e5f2_6c44_4987_b111_398043b31734 o )  ) ) ( type_3d68b99d_6e09_459e_b080_3ccd36d92ab3_Class39 ( obj_be84e5f2_6c44_4987_b111_398043b31734 o )  ) ) ( type_3d68b99d_6e09_459e_b080_3ccd36d92ab3_Class50 ( obj_be84e5f2_6c44_4987_b111_398043b31734 o )  ) ) ( type_3d68b99d_6e09_459e_b080_3ccd36d92ab3_Class41 ( obj_be84e5f2_6c44_4987_b111_398043b31734 o )  ) )):named c35))
(assert (! (exists ((o Int)) (and (and (and (and (and ( type_3d68b99d_6e09_459e_b080_3ccd36d92ab3_Class41 ( obj_be84e5f2_6c44_4987_b111_398043b31734 o )  )  ( type_3d68b99d_6e09_459e_b080_3ccd36d92ab3_Class45 ( obj_be84e5f2_6c44_4987_b111_398043b31734 o )  ) ) ( type_3d68b99d_6e09_459e_b080_3ccd36d92ab3_Class12 ( obj_be84e5f2_6c44_4987_b111_398043b31734 o )  ) ) ( type_3d68b99d_6e09_459e_b080_3ccd36d92ab3_Class33 ( obj_be84e5f2_6c44_4987_b111_398043b31734 o )  ) ) ( type_3d68b99d_6e09_459e_b080_3ccd36d92ab3_Class22 ( obj_be84e5f2_6c44_4987_b111_398043b31734 o )  ) ) ( type_3d68b99d_6e09_459e_b080_3ccd36d92ab3_Class39 ( obj_be84e5f2_6c44_4987_b111_398043b31734 o )  ) )):named c36))
(assert (! (exists ((o Int)) (and ( type_3d68b99d_6e09_459e_b080_3ccd36d92ab3_Class42 ( obj_be84e5f2_6c44_4987_b111_398043b31734 o )  )  ( type_3d68b99d_6e09_459e_b080_3ccd36d92ab3_Class39 ( obj_be84e5f2_6c44_4987_b111_398043b31734 o )  ) )):named c37))
(assert (! (exists ((o Int)) ( type_3d68b99d_6e09_459e_b080_3ccd36d92ab3_Class43 ( obj_be84e5f2_6c44_4987_b111_398043b31734 o )  ) ):named c38))
(assert (! (exists ((o Int)) (and (and (and (and (and (and (and ( type_3d68b99d_6e09_459e_b080_3ccd36d92ab3_Class44 ( obj_be84e5f2_6c44_4987_b111_398043b31734 o )  )  ( type_3d68b99d_6e09_459e_b080_3ccd36d92ab3_Class45 ( obj_be84e5f2_6c44_4987_b111_398043b31734 o )  ) ) ( type_3d68b99d_6e09_459e_b080_3ccd36d92ab3_Class12 ( obj_be84e5f2_6c44_4987_b111_398043b31734 o )  ) ) ( type_3d68b99d_6e09_459e_b080_3ccd36d92ab3_Class33 ( obj_be84e5f2_6c44_4987_b111_398043b31734 o )  ) ) ( type_3d68b99d_6e09_459e_b080_3ccd36d92ab3_Class22 ( obj_be84e5f2_6c44_4987_b111_398043b31734 o )  ) ) ( type_3d68b99d_6e09_459e_b080_3ccd36d92ab3_Class29 ( obj_be84e5f2_6c44_4987_b111_398043b31734 o )  ) ) ( type_3d68b99d_6e09_459e_b080_3ccd36d92ab3_Class39 ( obj_be84e5f2_6c44_4987_b111_398043b31734 o )  ) ) ( type_3d68b99d_6e09_459e_b080_3ccd36d92ab3_Class41 ( obj_be84e5f2_6c44_4987_b111_398043b31734 o )  ) )):named c39))
(assert (! (exists ((o Int)) (and (and (and (and ( type_3d68b99d_6e09_459e_b080_3ccd36d92ab3_Class45 ( obj_be84e5f2_6c44_4987_b111_398043b31734 o )  )  ( type_3d68b99d_6e09_459e_b080_3ccd36d92ab3_Class12 ( obj_be84e5f2_6c44_4987_b111_398043b31734 o )  ) ) ( type_3d68b99d_6e09_459e_b080_3ccd36d92ab3_Class33 ( obj_be84e5f2_6c44_4987_b111_398043b31734 o )  ) ) ( type_3d68b99d_6e09_459e_b080_3ccd36d92ab3_Class22 ( obj_be84e5f2_6c44_4987_b111_398043b31734 o )  ) ) ( type_3d68b99d_6e09_459e_b080_3ccd36d92ab3_Class39 ( obj_be84e5f2_6c44_4987_b111_398043b31734 o )  ) )):named c40))
(assert (! (exists ((o Int)) (and (and ( type_3d68b99d_6e09_459e_b080_3ccd36d92ab3_Class46 ( obj_be84e5f2_6c44_4987_b111_398043b31734 o )  )  ( type_3d68b99d_6e09_459e_b080_3ccd36d92ab3_Class39 ( obj_be84e5f2_6c44_4987_b111_398043b31734 o )  ) ) ( type_3d68b99d_6e09_459e_b080_3ccd36d92ab3_Class5 ( obj_be84e5f2_6c44_4987_b111_398043b31734 o )  ) )):named c41))
(assert (! (exists ((o Int)) ( type_3d68b99d_6e09_459e_b080_3ccd36d92ab3_Class47 ( obj_be84e5f2_6c44_4987_b111_398043b31734 o )  ) ):named c42))
(assert (! (exists ((o Int)) (and (and (and (and (and (and (and (and (and ( type_3d68b99d_6e09_459e_b080_3ccd36d92ab3_Class48 ( obj_be84e5f2_6c44_4987_b111_398043b31734 o )  )  ( type_3d68b99d_6e09_459e_b080_3ccd36d92ab3_Class45 ( obj_be84e5f2_6c44_4987_b111_398043b31734 o )  ) ) ( type_3d68b99d_6e09_459e_b080_3ccd36d92ab3_Class12 ( obj_be84e5f2_6c44_4987_b111_398043b31734 o )  ) ) ( type_3d68b99d_6e09_459e_b080_3ccd36d92ab3_Class55 ( obj_be84e5f2_6c44_4987_b111_398043b31734 o )  ) ) ( type_3d68b99d_6e09_459e_b080_3ccd36d92ab3_Class33 ( obj_be84e5f2_6c44_4987_b111_398043b31734 o )  ) ) ( type_3d68b99d_6e09_459e_b080_3ccd36d92ab3_Class22 ( obj_be84e5f2_6c44_4987_b111_398043b31734 o )  ) ) ( type_3d68b99d_6e09_459e_b080_3ccd36d92ab3_Class29 ( obj_be84e5f2_6c44_4987_b111_398043b31734 o )  ) ) ( type_3d68b99d_6e09_459e_b080_3ccd36d92ab3_Class39 ( obj_be84e5f2_6c44_4987_b111_398043b31734 o )  ) ) ( type_3d68b99d_6e09_459e_b080_3ccd36d92ab3_Class50 ( obj_be84e5f2_6c44_4987_b111_398043b31734 o )  ) ) ( type_3d68b99d_6e09_459e_b080_3ccd36d92ab3_Class41 ( obj_be84e5f2_6c44_4987_b111_398043b31734 o )  ) )):named c43))
(assert (! (exists ((o Int)) (and (and (and (and (and (and (and (and (and ( type_3d68b99d_6e09_459e_b080_3ccd36d92ab3_Class49 ( obj_be84e5f2_6c44_4987_b111_398043b31734 o )  )  ( type_3d68b99d_6e09_459e_b080_3ccd36d92ab3_Class45 ( obj_be84e5f2_6c44_4987_b111_398043b31734 o )  ) ) ( type_3d68b99d_6e09_459e_b080_3ccd36d92ab3_Class12 ( obj_be84e5f2_6c44_4987_b111_398043b31734 o )  ) ) ( type_3d68b99d_6e09_459e_b080_3ccd36d92ab3_Class55 ( obj_be84e5f2_6c44_4987_b111_398043b31734 o )  ) ) ( type_3d68b99d_6e09_459e_b080_3ccd36d92ab3_Class33 ( obj_be84e5f2_6c44_4987_b111_398043b31734 o )  ) ) ( type_3d68b99d_6e09_459e_b080_3ccd36d92ab3_Class22 ( obj_be84e5f2_6c44_4987_b111_398043b31734 o )  ) ) ( type_3d68b99d_6e09_459e_b080_3ccd36d92ab3_Class29 ( obj_be84e5f2_6c44_4987_b111_398043b31734 o )  ) ) ( type_3d68b99d_6e09_459e_b080_3ccd36d92ab3_Class39 ( obj_be84e5f2_6c44_4987_b111_398043b31734 o )  ) ) ( type_3d68b99d_6e09_459e_b080_3ccd36d92ab3_Class50 ( obj_be84e5f2_6c44_4987_b111_398043b31734 o )  ) ) ( type_3d68b99d_6e09_459e_b080_3ccd36d92ab3_Class41 ( obj_be84e5f2_6c44_4987_b111_398043b31734 o )  ) )):named c44))
(assert (! (exists ((o Int)) (and ( type_3d68b99d_6e09_459e_b080_3ccd36d92ab3_Class5 ( obj_be84e5f2_6c44_4987_b111_398043b31734 o )  )  ( type_3d68b99d_6e09_459e_b080_3ccd36d92ab3_Class39 ( obj_be84e5f2_6c44_4987_b111_398043b31734 o )  ) )):named c45))
(assert (! (exists ((o Int)) (and (and (and (and (and (and (and (and ( type_3d68b99d_6e09_459e_b080_3ccd36d92ab3_Class50 ( obj_be84e5f2_6c44_4987_b111_398043b31734 o )  )  ( type_3d68b99d_6e09_459e_b080_3ccd36d92ab3_Class45 ( obj_be84e5f2_6c44_4987_b111_398043b31734 o )  ) ) ( type_3d68b99d_6e09_459e_b080_3ccd36d92ab3_Class12 ( obj_be84e5f2_6c44_4987_b111_398043b31734 o )  ) ) ( type_3d68b99d_6e09_459e_b080_3ccd36d92ab3_Class55 ( obj_be84e5f2_6c44_4987_b111_398043b31734 o )  ) ) ( type_3d68b99d_6e09_459e_b080_3ccd36d92ab3_Class33 ( obj_be84e5f2_6c44_4987_b111_398043b31734 o )  ) ) ( type_3d68b99d_6e09_459e_b080_3ccd36d92ab3_Class22 ( obj_be84e5f2_6c44_4987_b111_398043b31734 o )  ) ) ( type_3d68b99d_6e09_459e_b080_3ccd36d92ab3_Class29 ( obj_be84e5f2_6c44_4987_b111_398043b31734 o )  ) ) ( type_3d68b99d_6e09_459e_b080_3ccd36d92ab3_Class39 ( obj_be84e5f2_6c44_4987_b111_398043b31734 o )  ) ) ( type_3d68b99d_6e09_459e_b080_3ccd36d92ab3_Class41 ( obj_be84e5f2_6c44_4987_b111_398043b31734 o )  ) )):named c46))
(assert (! (exists ((o Int)) (and (and (and (and (and (and ( type_3d68b99d_6e09_459e_b080_3ccd36d92ab3_Class51 ( obj_be84e5f2_6c44_4987_b111_398043b31734 o )  )  ( type_3d68b99d_6e09_459e_b080_3ccd36d92ab3_Class45 ( obj_be84e5f2_6c44_4987_b111_398043b31734 o )  ) ) ( type_3d68b99d_6e09_459e_b080_3ccd36d92ab3_Class12 ( obj_be84e5f2_6c44_4987_b111_398043b31734 o )  ) ) ( type_3d68b99d_6e09_459e_b080_3ccd36d92ab3_Class33 ( obj_be84e5f2_6c44_4987_b111_398043b31734 o )  ) ) ( type_3d68b99d_6e09_459e_b080_3ccd36d92ab3_Class22 ( obj_be84e5f2_6c44_4987_b111_398043b31734 o )  ) ) ( type_3d68b99d_6e09_459e_b080_3ccd36d92ab3_Class16 ( obj_be84e5f2_6c44_4987_b111_398043b31734 o )  ) ) ( type_3d68b99d_6e09_459e_b080_3ccd36d92ab3_Class39 ( obj_be84e5f2_6c44_4987_b111_398043b31734 o )  ) )):named c47))
(assert (! (exists ((o Int)) (and (and (and (and (and ( type_3d68b99d_6e09_459e_b080_3ccd36d92ab3_Class52 ( obj_be84e5f2_6c44_4987_b111_398043b31734 o )  )  ( type_3d68b99d_6e09_459e_b080_3ccd36d92ab3_Class45 ( obj_be84e5f2_6c44_4987_b111_398043b31734 o )  ) ) ( type_3d68b99d_6e09_459e_b080_3ccd36d92ab3_Class12 ( obj_be84e5f2_6c44_4987_b111_398043b31734 o )  ) ) ( type_3d68b99d_6e09_459e_b080_3ccd36d92ab3_Class33 ( obj_be84e5f2_6c44_4987_b111_398043b31734 o )  ) ) ( type_3d68b99d_6e09_459e_b080_3ccd36d92ab3_Class22 ( obj_be84e5f2_6c44_4987_b111_398043b31734 o )  ) ) ( type_3d68b99d_6e09_459e_b080_3ccd36d92ab3_Class39 ( obj_be84e5f2_6c44_4987_b111_398043b31734 o )  ) )):named c48))
(assert (! (exists ((o Int)) ( type_3d68b99d_6e09_459e_b080_3ccd36d92ab3_Class53 ( obj_be84e5f2_6c44_4987_b111_398043b31734 o )  ) ):named c49))
(assert (! (exists ((o Int)) ( type_3d68b99d_6e09_459e_b080_3ccd36d92ab3_Class54 ( obj_be84e5f2_6c44_4987_b111_398043b31734 o )  ) ):named c50))
(assert (! (exists ((o Int)) (and (and (and (and (and (and (and ( type_3d68b99d_6e09_459e_b080_3ccd36d92ab3_Class55 ( obj_be84e5f2_6c44_4987_b111_398043b31734 o )  )  ( type_3d68b99d_6e09_459e_b080_3ccd36d92ab3_Class45 ( obj_be84e5f2_6c44_4987_b111_398043b31734 o )  ) ) ( type_3d68b99d_6e09_459e_b080_3ccd36d92ab3_Class12 ( obj_be84e5f2_6c44_4987_b111_398043b31734 o )  ) ) ( type_3d68b99d_6e09_459e_b080_3ccd36d92ab3_Class33 ( obj_be84e5f2_6c44_4987_b111_398043b31734 o )  ) ) ( type_3d68b99d_6e09_459e_b080_3ccd36d92ab3_Class22 ( obj_be84e5f2_6c44_4987_b111_398043b31734 o )  ) ) ( type_3d68b99d_6e09_459e_b080_3ccd36d92ab3_Class29 ( obj_be84e5f2_6c44_4987_b111_398043b31734 o )  ) ) ( type_3d68b99d_6e09_459e_b080_3ccd36d92ab3_Class39 ( obj_be84e5f2_6c44_4987_b111_398043b31734 o )  ) ) ( type_3d68b99d_6e09_459e_b080_3ccd36d92ab3_Class41 ( obj_be84e5f2_6c44_4987_b111_398043b31734 o )  ) )):named c51))
(assert (! (exists ((o Int)) ( type_3d68b99d_6e09_459e_b080_3ccd36d92ab3_Class6 ( obj_be84e5f2_6c44_4987_b111_398043b31734 o )  ) ):named c52))
(assert (! (exists ((o Int)) (and (and (and (and (and (and (and (and (and ( type_3d68b99d_6e09_459e_b080_3ccd36d92ab3_Class7 ( obj_be84e5f2_6c44_4987_b111_398043b31734 o )  )  ( type_3d68b99d_6e09_459e_b080_3ccd36d92ab3_Class45 ( obj_be84e5f2_6c44_4987_b111_398043b31734 o )  ) ) ( type_3d68b99d_6e09_459e_b080_3ccd36d92ab3_Class12 ( obj_be84e5f2_6c44_4987_b111_398043b31734 o )  ) ) ( type_3d68b99d_6e09_459e_b080_3ccd36d92ab3_Class55 ( obj_be84e5f2_6c44_4987_b111_398043b31734 o )  ) ) ( type_3d68b99d_6e09_459e_b080_3ccd36d92ab3_Class33 ( obj_be84e5f2_6c44_4987_b111_398043b31734 o )  ) ) ( type_3d68b99d_6e09_459e_b080_3ccd36d92ab3_Class22 ( obj_be84e5f2_6c44_4987_b111_398043b31734 o )  ) ) ( type_3d68b99d_6e09_459e_b080_3ccd36d92ab3_Class29 ( obj_be84e5f2_6c44_4987_b111_398043b31734 o )  ) ) ( type_3d68b99d_6e09_459e_b080_3ccd36d92ab3_Class39 ( obj_be84e5f2_6c44_4987_b111_398043b31734 o )  ) ) ( type_3d68b99d_6e09_459e_b080_3ccd36d92ab3_Class50 ( obj_be84e5f2_6c44_4987_b111_398043b31734 o )  ) ) ( type_3d68b99d_6e09_459e_b080_3ccd36d92ab3_Class41 ( obj_be84e5f2_6c44_4987_b111_398043b31734 o )  ) )):named c53))
(assert (! (exists ((o Int)) (and ( type_3d68b99d_6e09_459e_b080_3ccd36d92ab3_Class8 ( obj_be84e5f2_6c44_4987_b111_398043b31734 o )  )  ( type_3d68b99d_6e09_459e_b080_3ccd36d92ab3_Class39 ( obj_be84e5f2_6c44_4987_b111_398043b31734 o )  ) )):named c54))
(assert (! (exists ((o Int)) ( type_3d68b99d_6e09_459e_b080_3ccd36d92ab3_Class9 ( obj_be84e5f2_6c44_4987_b111_398043b31734 o )  ) ):named c55))

 ;end of formula 